p cnf 22 10
e 1 0
a 2 3 4 5 0
e 6 7 8 9 10 11 0
a 12 13 0
e 14 0
a 15 0
e 16 0
a 17 18 0
e 19 0
a 20 0
e 21 0
a 22 0
11 -12 -21 -6 0
-13 -1 7 -20 -15 0
-16 7 0
-10 -7 6 -3 0
-7 -15 17 -9 0
7 -10 -15 -19 0
9 -6 -13 16 2 0
-14 -11 0
-1 11 -3 -13 0
-11 -5 18 -12 0
